c Output_time 26.03.2020 18:15:31_+0100 1585242931837796747
c ** Program information **
c program_name                          "QBRG_debug"
c version                               "0.3.20"
c date                                  "25.3.2020"
c gid_id                                "673970833836058123f633335630c185360d632e"
c author                                "Oliver Kullmann"
c url                                   "https://github.com/OKullmann/oklibrary/blob/master/Satisfiability/Transformers/Generators/Random/QBRG.cpp"
c ** Machine information **
c machine_name                          "chyna-Lenovo-G50-70"
c bogomips                              3791.08
c ** Compilation information **
c compiler_version                      "g++ 7.5.0"
c compilation_date                      "Mar_26_2020 11:16:30"
c compilation_options                   "--std=c++17 -pedantic -fmax-errors=5 -Wall -Wextra -g -D_GLIBCXX_DEBUG"
c NDEBUG                                0
c OPTIMIZE                              0
c ** Parameters **
c command-line                          "./QBRG_debug" "a40 e40 a40 40" "609*1,1|2-2,1|3-3,1|4-4,1" "" "1,t" ""
c output                                "QuBlRaGe_160_609_1585242931778437617.qdimacs"
c options                               "filtered,renamed"
c num_quantifier_blocks                 4
c  quantifier_blocks                    1:a1-40 2:e41-80 3:a81-120 4:e121-160
c num_clause-blocks                     1
c  clause-blocks                        609 * {1-40,1,1/2} | {41-80,1,1/2} | {81-120,1,1/2} | {121-160,1,1/2}
c num_e-seeds                           37+2=39
c  e-seeds                              1 0 1 0 5 160 2 40 0 40 1 40 0 40 1 609 4 1 1 1 1 2 2 2 1 1 2 3 3 1 1 2 4 4 1 1 2 1 1585242931778436636
p cnf 160 609
a 1 2 3 4 5 6 7 8 9 10 11 12 13 14 15 16 17 18 19 20 21 22 23 24 25 26 27 28 29 30 31 32 33 34 35 36 37 38 39 40 0
e 41 42 43 44 45 46 47 48 49 50 51 52 53 54 55 56 57 58 59 60 61 62 63 64 65 66 67 68 69 70 71 72 73 74 75 76 77 78 79 80 0
a 81 82 83 84 85 86 87 88 89 90 91 92 93 94 95 96 97 98 99 100 101 102 103 104 105 106 107 108 109 110 111 112 113 114 115 116 117 118 119 120 0
e 121 122 123 124 125 126 127 128 129 130 131 132 133 134 135 136 137 138 139 140 141 142 143 144 145 146 147 148 149 150 151 152 153 154 155 156 157 158 159 160 0
-23 -51 -82 -121 0
4 55 83 -121 0
-10 -65 89 -121 0
40 63 104 -121 0
-6 -64 -109 -121 0
-26 56 -112 -121 0
-23 51 112 -121 0
-28 -55 -114 -121 0
-32 -78 85 121 0
36 75 -102 121 0
-9 67 -105 121 0
-33 41 106 121 0
-39 79 107 121 0
-8 -72 -108 121 0
11 68 111 121 0
-19 -48 -96 -122 0
23 -80 -105 -122 0
24 -70 112 -122 0
40 66 -117 -122 0
-35 44 86 122 0
-35 -52 86 122 0
-16 63 88 122 0
-27 -58 -90 122 0
-1 -75 93 122 0
-33 -64 -96 122 0
5 77 -107 122 0
-26 58 -111 122 0
-31 -52 -119 122 0
-9 52 84 -123 0
21 47 94 -123 0
27 -54 -104 -123 0
5 -55 -108 -123 0
2 -73 108 -123 0
25 -57 112 -123 0
-6 -64 -113 -123 0
-28 -78 -85 123 0
26 74 -90 123 0
-29 66 -96 123 0
-14 62 -102 123 0
22 77 -103 123 0
-3 51 -109 123 0
23 64 -109 123 0
3 -55 -110 123 0
-10 73 113 123 0
-23 -48 -117 123 0
32 75 81 -124 0
24 -70 82 -124 0
10 -53 -87 -124 0
-29 -76 91 -124 0
37 48 99 -124 0
37 -47 102 -124 0
21 42 112 -124 0
8 54 117 -124 0
-14 79 -119 -124 0
-23 -49 87 124 0
-34 -49 91 124 0
-33 -50 -102 124 0
19 -62 106 124 0
5 -55 -108 124 0
13 48 -113 124 0
11 -63 94 -125 0
11 -50 96 -125 0
-35 79 -101 -125 0
32 -44 106 -125 0
-25 48 110 -125 0
-36 -74 114 -125 0
-40 69 -120 -125 0
-22 -73 -85 125 0
21 -62 -87 125 0
-11 -75 91 125 0
-10 55 92 125 0
23 42 -99 125 0
-24 -53 -107 125 0
32 56 108 125 0
37 55 109 125 0
30 78 115 125 0
18 -43 116 125 0
-23 72 82 -126 0
-3 45 89 -126 0
-32 -69 90 -126 0
9 79 95 -126 0
15 66 111 -126 0
12 75 114 -126 0
12 70 -87 126 0
-31 60 97 126 0
14 72 97 126 0
-8 -70 -100 126 0
-15 -53 114 126 0
-14 -65 -116 126 0
-5 56 120 126 0
-15 61 82 -127 0
-30 79 83 -127 0
-37 64 -87 -127 0
36 -64 -89 -127 0
24 -66 99 -127 0
-26 46 100 -127 0
-9 47 103 -127 0
-34 -63 -108 -127 0
30 -45 -116 -127 0
21 66 117 -127 0
13 68 -82 127 0
-27 72 -98 127 0
1 75 103 127 0
22 44 -104 127 0
-39 44 120 127 0
-11 68 -87 -128 0
16 -79 -94 -128 0
-30 -53 -96 -128 0
15 60 -96 -128 0
34 -42 96 -128 0
21 42 -103 -128 0
-30 78 107 -128 0
-27 -70 120 -128 0
22 73 -82 128 0
-25 -50 82 128 0
-10 -42 -86 128 0
-16 80 -87 128 0
25 53 -93 128 0
16 -54 97 128 0
16 74 97 128 0
-17 -60 99 128 0
35 -49 -109 128 0
16 48 109 128 0
-4 -51 -112 128 0
-9 -78 -114 128 0
13 -75 -116 128 0
3 -60 -117 128 0
22 48 -118 128 0
-14 -69 82 -129 0
-22 69 86 -129 0
-27 -46 -91 -129 0
-30 -75 -96 -129 0
-39 -71 -100 -129 0
-18 -49 100 -129 0
-17 -59 -101 -129 0
-22 77 101 -129 0
22 76 102 -129 0
36 50 -109 -129 0
-13 50 84 129 0
-24 48 85 129 0
4 -64 -94 129 0
-8 -79 94 129 0
34 66 -102 129 0
-20 73 -103 129 0
-26 75 112 129 0
8 80 118 129 0
34 71 -87 -130 0
-1 64 -88 -130 0
-20 -77 93 -130 0
-2 -68 98 -130 0
21 -46 -104 -130 0
-28 50 81 130 0
-29 72 81 130 0
-1 -62 91 130 0
25 76 -94 130 0
6 62 -99 130 0
-26 61 -102 130 0
6 -55 -107 130 0
-3 -75 107 130 0
33 48 119 130 0
-20 79 120 130 0
-30 77 81 -131 0
7 -57 -84 -131 0
22 61 -88 -131 0
1 52 93 -131 0
-34 -67 97 -131 0
-7 63 102 -131 0
-18 -73 -104 -131 0
37 52 -105 -131 0
33 -80 -111 -131 0
25 69 -115 -131 0
-29 74 -81 131 0
26 78 82 131 0
40 53 -84 131 0
33 59 -90 131 0
13 -70 -90 131 0
-11 -55 92 131 0
24 -60 92 131 0
-40 60 94 131 0
-12 63 103 131 0
20 -46 104 131 0
17 61 114 131 0
-15 -58 120 131 0
39 -57 -81 -132 0
33 -68 -94 -132 0
-40 54 95 -132 0
-6 -59 -97 -132 0
-19 -71 -97 -132 0
11 69 -100 -132 0
31 -71 -101 -132 0
-13 -79 -106 -132 0
-24 47 117 -132 0
38 -64 -119 -132 0
7 -59 119 -132 0
27 -62 120 -132 0
-12 60 -83 132 0
11 71 -116 132 0
11 43 117 132 0
-15 45 -81 -133 0
9 41 83 -133 0
-30 -46 -87 -133 0
39 -75 -89 -133 0
-30 46 -97 -133 0
-27 -62 -102 -133 0
-15 44 -107 -133 0
-34 -64 -107 -133 0
10 53 107 -133 0
1 41 112 -133 0
27 56 112 -133 0
12 57 113 -133 0
-25 67 -118 -133 0
38 -76 119 -133 0
10 -56 -82 133 0
-23 -71 85 133 0
-20 -43 88 133 0
12 59 -90 133 0
-31 48 101 133 0
12 63 -103 133 0
36 -77 -116 133 0
16 65 82 -134 0
19 43 -86 -134 0
36 76 -96 -134 0
-8 49 107 -134 0
-16 58 -111 -134 0
-8 53 84 134 0
4 -71 -86 134 0
-29 -71 -88 134 0
31 -65 -92 134 0
36 52 92 134 0
39 49 -96 134 0
-4 63 100 134 0
25 58 -104 134 0
33 -66 105 134 0
13 -61 -117 134 0
-35 78 84 -135 0
38 65 -86 -135 0
-40 80 92 -135 0
-12 -77 -93 -135 0
26 -44 -97 -135 0
5 -47 -99 -135 0
35 -62 102 -135 0
-2 41 -103 -135 0
27 63 -109 -135 0
-30 76 113 -135 0
38 -78 114 -135 0
-2 -48 -115 -135 0
21 42 117 -135 0
38 -51 90 135 0
20 56 -93 135 0
-21 65 -107 135 0
-11 80 -111 135 0
-21 -69 117 135 0
35 -52 83 -136 0
5 43 -89 -136 0
4 78 -101 -136 0
-21 65 -107 -136 0
13 -54 -108 -136 0
18 -62 115 -136 0
38 44 87 136 0
21 -79 -88 136 0
37 57 88 136 0
6 72 93 136 0
-39 80 -95 136 0
22 -42 -100 136 0
-6 71 -101 136 0
-19 68 114 136 0
23 -76 115 136 0
16 53 83 -137 0
4 70 85 -137 0
-31 76 -87 -137 0
17 -56 87 -137 0
18 -47 97 -137 0
-19 -50 -108 -137 0
27 -46 -110 -137 0
-17 68 117 -137 0
26 58 120 -137 0
28 -68 92 137 0
39 -74 -96 137 0
23 80 -101 137 0
-14 -78 -102 137 0
-35 59 106 137 0
-31 -50 108 137 0
13 -63 -82 -138 0
27 64 97 -138 0
26 -64 99 -138 0
37 -63 105 -138 0
-12 60 110 -138 0
33 -46 -118 -138 0
36 67 -82 138 0
7 -53 85 138 0
-9 47 90 138 0
-18 69 97 138 0
31 -48 98 138 0
-19 65 -99 138 0
1 -75 112 138 0
1 -68 114 138 0
-5 -52 115 138 0
13 68 83 -139 0
-27 54 -84 -139 0
-7 44 93 -139 0
-19 69 95 -139 0
-18 -46 -113 -139 0
-9 -64 -114 -139 0
-25 63 90 139 0
-35 80 -97 139 0
23 77 -101 139 0
-2 -51 104 139 0
-27 57 108 139 0
-28 70 110 -140 0
11 -45 114 -140 0
-14 -53 115 -140 0
-21 73 -118 -140 0
37 -80 -118 -140 0
-25 -79 -89 140 0
5 -79 91 140 0
-22 59 92 140 0
21 41 -94 140 0
24 58 -94 140 0
-4 47 -107 140 0
5 53 118 140 0
-34 -45 -120 140 0
37 -62 85 -141 0
-24 60 -90 -141 0
10 64 94 -141 0
31 -49 102 -141 0
-3 -43 108 -141 0
-16 57 118 -141 0
-35 -61 -82 141 0
-3 -60 92 141 0
13 -75 99 141 0
-7 -54 103 141 0
-35 -78 108 141 0
-22 -68 110 141 0
-14 48 -113 141 0
4 63 91 -142 0
-34 -63 -96 -142 0
2 -75 97 -142 0
-16 80 100 -142 0
-7 -59 102 -142 0
-25 -79 -103 -142 0
-25 60 -108 -142 0
8 55 111 -142 0
30 64 113 -142 0
-11 -41 120 -142 0
-6 -46 -82 142 0
40 59 87 142 0
-35 42 -89 142 0
40 60 89 142 0
23 63 -93 142 0
19 -68 97 142 0
-6 -58 103 142 0
-18 -45 -112 142 0
28 -43 -88 -143 0
-27 48 -91 -143 0
-26 -65 91 -143 0
-35 59 -114 -143 0
29 41 -117 -143 0
-16 73 -83 143 0
-40 78 92 143 0
13 62 95 143 0
-15 -71 -99 143 0
29 -67 -109 143 0
-21 -71 114 143 0
-11 50 118 143 0
17 -79 -83 -144 0
-3 63 -84 -144 0
32 66 84 -144 0
-32 -50 101 -144 0
18 54 112 -144 0
-35 -53 -85 144 0
10 65 85 144 0
8 67 91 144 0
14 68 -95 144 0
-2 64 -119 144 0
37 -78 102 -145 0
-11 50 108 -145 0
-23 67 110 -145 0
8 -55 81 145 0
-24 -45 92 145 0
26 -51 -95 145 0
28 -53 100 145 0
-38 47 -104 145 0
8 45 -116 145 0
-25 55 -118 145 0
35 43 120 145 0
-36 75 85 -146 0
33 -79 103 -146 0
-18 -55 -104 -146 0
-19 63 107 -146 0
-37 72 -111 -146 0
-37 50 -112 -146 0
19 -44 -89 146 0
15 -73 101 146 0
-35 -64 -105 146 0
33 -46 -107 146 0
27 66 116 146 0
6 75 -81 -147 0
-36 -42 -83 -147 0
-38 59 83 -147 0
-18 44 86 -147 0
23 -51 -87 -147 0
-37 48 -95 -147 0
-7 44 -110 -147 0
30 69 117 -147 0
-14 -80 -118 -147 0
-37 -48 84 147 0
-20 55 -86 147 0
-28 -46 87 147 0
-2 -66 89 147 0
18 -43 90 147 0
-35 -47 -94 147 0
-8 -80 95 147 0
10 -65 -98 147 0
-32 47 98 147 0
-34 -43 -104 147 0
-39 46 105 147 0
11 51 110 147 0
16 -69 -111 147 0
20 72 -112 147 0
-27 65 -119 147 0
-23 66 87 -148 0
-6 -70 88 -148 0
-23 -58 -90 -148 0
36 -42 -94 -148 0
-37 80 -115 -148 0
-33 -64 -116 -148 0
17 71 -117 -148 0
25 43 -81 148 0
25 -55 83 148 0
-39 69 -84 148 0
33 70 -91 148 0
-31 -50 98 148 0
24 68 106 148 0
3 -60 -114 148 0
-15 -49 -92 -149 0
-21 44 -93 -149 0
-38 77 -81 149 0
-39 45 -82 149 0
27 44 -93 149 0
14 78 -106 149 0
-9 64 -111 149 0
-21 -73 111 149 0
8 41 81 -150 0
-22 77 -85 -150 0
-35 -67 -95 -150 0
20 68 96 -150 0
-32 49 -99 -150 0
7 56 -100 -150 0
23 -64 106 -150 0
17 44 110 -150 0
-17 -59 111 -150 0
-15 -51 -115 -150 0
-27 49 -96 150 0
-33 -42 -99 150 0
-12 -80 -103 150 0
30 60 -113 150 0
-9 46 114 150 0
5 80 -94 -151 0
28 -51 -95 -151 0
26 -42 -97 -151 0
-39 -47 -99 -151 0
-34 -79 104 -151 0
-13 45 -119 -151 0
-10 69 -84 151 0
-28 62 -85 151 0
35 -67 90 151 0
-28 44 108 151 0
-5 -79 -112 151 0
-7 75 -113 151 0
-5 -41 119 151 0
30 57 83 -152 0
-2 -56 89 -152 0
-9 76 -91 -152 0
26 79 94 -152 0
6 -49 -99 -152 0
2 -55 -99 -152 0
23 62 -104 -152 0
2 76 85 152 0
-30 -57 -88 152 0
21 52 91 152 0
8 55 -95 152 0
-13 56 96 152 0
17 -67 -97 152 0
-13 -57 99 152 0
-23 -69 99 152 0
1 -52 100 152 0
8 46 -102 152 0
-28 64 109 152 0
-10 -71 112 152 0
-1 -53 -115 152 0
-35 53 120 152 0
22 -67 83 -153 0
-10 63 89 -153 0
-7 -63 -103 -153 0
8 -67 104 -153 0
9 -68 -113 -153 0
-26 -72 113 -153 0
-8 47 -120 -153 0
-21 -58 98 153 0
23 -73 -108 153 0
-25 -64 -110 153 0
-18 -64 -118 153 0
-26 74 -118 153 0
-8 -80 82 -154 0
14 -53 -98 -154 0
-13 -62 -103 -154 0
3 76 115 -154 0
-23 -42 -81 154 0
-32 -71 -82 154 0
11 -42 82 154 0
24 -48 -87 154 0
15 -41 93 154 0
5 -69 94 154 0
7 70 106 154 0
-37 76 113 154 0
22 -55 115 154 0
33 -48 -120 154 0
-25 -77 120 154 0
-15 -68 -84 -155 0
1 -78 89 -155 0
35 -53 90 -155 0
21 -60 -96 -155 0
-15 -47 104 -155 0
-39 -54 -105 -155 0
35 52 -107 -155 0
40 -42 -116 -155 0
-3 56 82 155 0
27 -76 -85 155 0
-8 -51 85 155 0
34 70 -86 155 0
-19 58 94 155 0
3 60 94 155 0
17 76 -96 155 0
-2 -75 99 155 0
10 -62 111 155 0
28 70 115 155 0
2 -72 -120 155 0
-37 55 92 -156 0
29 -76 -94 -156 0
-25 -69 102 -156 0
29 -74 -106 -156 0
3 -41 115 -156 0
-29 53 -117 -156 0
39 72 -81 156 0
-19 50 -83 156 0
-19 -59 88 156 0
16 -77 -94 156 0
-11 -62 -97 156 0
35 60 -115 156 0
3 56 -82 -157 0
-27 63 -87 -157 0
24 -57 97 -157 0
-37 47 -109 -157 0
1 80 -92 157 0
17 -75 -95 157 0
-17 48 102 157 0
-11 71 -104 157 0
3 57 104 157 0
-3 -77 -105 157 0
-13 80 -117 157 0
-30 -48 -82 -158 0
-28 68 -89 -158 0
20 78 96 -158 0
7 65 -99 -158 0
28 -61 112 -158 0
-5 -70 -117 -158 0
27 57 -119 -158 0
38 52 120 -158 0
37 -66 -84 158 0
23 52 -93 158 0
-36 68 93 158 0
-35 46 96 158 0
17 -43 -100 158 0
1 74 -111 158 0
-36 -56 115 158 0
-3 72 88 -159 0
8 -43 -98 -159 0
40 -79 98 -159 0
2 -69 -99 -159 0
-28 52 100 -159 0
1 59 -101 -159 0
28 -71 -102 -159 0
10 64 103 -159 0
-6 77 113 -159 0
-37 73 86 159 0
-38 -47 -104 159 0
-3 44 104 159 0
37 69 -108 159 0
14 -46 110 159 0
-21 63 111 159 0
9 -69 -112 159 0
-16 -62 120 159 0
30 -44 -85 -160 0
11 -41 87 -160 0
22 78 88 -160 0
40 -43 -90 -160 0
27 -73 97 -160 0
19 -66 102 -160 0
-29 71 -112 -160 0
-20 64 112 -160 0
-30 77 -117 -160 0
-8 47 -119 -160 0
-18 80 92 160 0
-19 -77 -98 160 0
-24 -60 98 160 0
-8 -62 99 160 0
-25 -44 101 160 0
32 -76 105 160 0
-12 -69 -118 160 0
